language ESSENCE' 1.0

letting jobs = 102
letting horizon = 801
letting resourcesRenew = 2
letting resourcesNonrenew = 2
letting resourceLimits = [89, 75, 173, 166]
letting successors = [[2, 3, 4, 5, 6, 7, 8, 9, 10, 11, 12, 13, 14, 15, 18, 19, 20, 21, 23, 24, 25, 26, 27, 28, 29, 35, 38, 47, 54], [101, 99, 98, 77, 75, 74, 67, 65, 63, 57, 55, 52, 51, 49, 48, 40, 39, 37, 33, 16], [100, 98, 67, 57, 50, 42, 41, 39, 31, 30, 22], [99, 74, 73, 70, 58, 57, 56, 48, 42, 37, 32, 17], [100, 99, 98, 96, 95, 77, 73, 72, 71, 67, 62, 55, 51, 50, 44, 42, 41, 40, 37], [101, 100, 98, 97, 96, 73, 71, 70, 66, 65, 64, 61, 60, 57, 56, 53, 36, 34], [98, 77, 74, 72, 67, 65, 62, 57, 56, 55, 52, 50, 49, 39, 30], [100, 99, 98, 97, 96, 95, 94, 92, 91, 90, 77, 76, 74, 73, 72, 71, 69, 62, 61, 60, 58, 51, 40], [98, 97, 95, 94, 76, 75, 72, 64, 62, 61, 60, 59, 56, 55, 51, 45, 42, 40], [100, 99, 98, 94, 74, 72, 64, 63, 62, 57, 51, 42, 39, 32], [98, 97, 76, 69, 66, 65, 63, 62, 61, 53, 49, 48, 33], [101, 100, 99, 98, 75, 72, 63, 61, 55, 42, 37], [101, 99, 98, 96, 89, 75, 73, 69, 66, 61, 46, 33], [98, 97, 96, 93, 85, 74, 70, 65, 62, 56, 32], [99, 94, 92, 91, 85, 77, 71, 69, 68, 64, 63, 56, 51, 48], [100, 96, 95, 94, 88, 86, 76, 73, 71, 69, 66, 44, 43], [101, 98, 97, 94, 93, 91, 87, 85, 82, 76, 75, 72, 71, 63, 62, 55], [100, 99, 98, 97, 96, 95, 93, 92, 91, 87, 86, 84, 81, 77, 68, 66, 56, 55], [96, 93, 90, 88, 73, 72, 70, 69, 59, 57, 50, 43], [97, 96, 95, 94, 93, 92, 91, 85, 84, 81, 77, 72, 70, 60, 56, 52], [100, 95, 93, 92, 90, 89, 83, 75, 72, 69, 67, 66, 65, 61, 50], [99, 97, 96, 95, 94, 93, 92, 91, 89, 87, 84, 83, 82, 80, 79, 76, 75, 72, 71, 66], [97, 93, 87, 86, 84, 75, 73, 71, 70, 37], [100, 99, 98, 94, 93, 92, 90, 89, 86, 85, 83, 77, 76, 74, 73, 69, 68, 61], [97, 94, 90, 89, 87, 86, 85, 83, 82, 81, 80, 75, 74, 73, 69, 63, 62], [99, 95, 93, 92, 91, 90, 89, 88, 87, 85, 84, 81, 80, 72, 70, 69, 60], [101, 99, 98, 97, 95, 88, 84, 70, 68, 59, 42], [101, 99, 98, 96, 94, 92, 91, 87, 85, 84, 82, 81, 74, 73, 69, 55], [95, 93, 92, 81, 74, 72, 69, 66, 62, 60, 57], [96, 94, 92, 88, 87, 85, 73, 70, 64, 60, 58], [101, 95, 92, 91, 86, 85, 82, 71, 62, 61, 55], [95, 92, 91, 89, 88, 86, 84, 83, 78, 71, 69, 68, 61], [93, 92, 91, 88, 86, 85, 70, 60, 50], [94, 92, 81, 72, 69, 68, 67, 55], [96, 95, 89, 88, 87, 86, 85, 84, 83, 82, 81, 80, 78, 73], [99, 93, 92, 91, 90, 87, 85, 84, 83, 78, 75, 68], [92, 90, 89, 88, 85, 81, 80, 69, 60], [100, 97, 94, 91, 90, 88, 85, 83, 80, 71, 69], [95, 92, 91, 90, 89, 83, 82, 81, 80, 78, 69], [93, 89, 88, 87, 86, 84, 80, 68, 66], [97, 91, 84, 81, 76, 74, 60], [93, 91, 87, 86, 82, 81, 80, 79, 66], [97, 91, 85, 81, 80, 60], [89, 85, 84, 82, 70, 61], [96, 88, 86, 84, 83, 81, 78, 73], [94, 91, 88, 86, 79, 71, 70], [92, 88, 84, 72, 71, 68], [89, 88, 87, 86, 82, 80, 79, 78], [90, 87, 86, 84, 79, 71], [94, 84, 81, 80, 79, 78], [89, 84, 83, 79, 70], [90, 89, 86, 80, 78], [92, 85, 83, 81, 79], [92, 90, 81, 70], [90, 89, 83, 80], [90, 88, 80, 79], [87, 83, 80, 79], [83, 80, 79, 78], [91, 81, 80, 78], [83, 78, 68], [87, 80, 79], [84, 79, 78], [96, 95, 84], [93, 90, 84], [94, 87, 80], [85, 78], [82, 78], [82], [79], [78], [81], [86], [79], [79], [88], [78], [78], [102], [102], [102], [102], [102], [102], [102], [102], [102], [102], [102], [102], [102], [102], [102], [102], [102], [102], [102], [102], [102], [102], [102], [102], []]
letting durations = [[0], [3, 5, 5], [4, 5, 5], [1, 8, 10], [3, 6, 7], [2, 4, 7], [7, 8, 9], [3, 7, 10], [6, 6, 9], [1, 3, 4], [4, 5, 7], [3, 5, 6], [3, 8, 10], [4, 7, 10], [5, 7, 8], [5, 8, 8], [1, 6, 6], [1, 1, 4], [1, 2, 10], [1, 3, 9], [6, 9, 10], [7, 7, 8], [3, 6, 8], [2, 6, 10], [1, 6, 10], [4, 5, 5], [4, 10, 10], [4, 6, 7], [2, 9, 10], [5, 7, 10], [1, 10, 10], [4, 5, 10], [1, 9, 9], [2, 3, 9], [5, 7, 9], [3, 4, 9], [6, 7, 8], [2, 3, 10], [1, 3, 3], [1, 1, 4], [1, 5, 9], [4, 6, 10], [7, 7, 7], [2, 6, 7], [2, 4, 8], [1, 2, 3], [3, 5, 7], [1, 6, 8], [2, 6, 7], [7, 7, 8], [1, 5, 7], [2, 8, 9], [2, 6, 6], [2, 5, 8], [8, 9, 10], [2, 3, 8], [2, 4, 10], [3, 3, 5], [2, 5, 6], [3, 4, 10], [2, 9, 10], [3, 3, 5], [2, 5, 5], [1, 2, 10], [1, 8, 8], [3, 8, 10], [2, 3, 9], [2, 5, 9], [2, 4, 10], [2, 7, 10], [2, 2, 4], [4, 5, 6], [3, 6, 7], [1, 5, 10], [4, 5, 7], [3, 4, 8], [2, 3, 9], [2, 6, 9], [8, 8, 9], [4, 7, 9], [1, 4, 7], [2, 5, 10], [6, 8, 10], [5, 8, 10], [1, 2, 9], [1, 3, 8], [1, 6, 8], [2, 7, 8], [1, 2, 5], [2, 3, 4], [2, 6, 9], [6, 7, 8], [1, 5, 7], [1, 2, 4], [5, 7, 10], [6, 7, 9], [5, 6, 9], [1, 5, 10], [1, 4, 9], [1, 3, 8], [1, 9, 9], [0]]
letting resourceUsage = [[[0, 0, 0, 0]], [[0, 4, 9, 0], [6, 0, 9, 0], [0, 3, 9, 0]], [[9, 0, 0, 8], [4, 0, 1, 0], [0, 4, 1, 0]], [[4, 0, 9, 0], [4, 0, 8, 0], [4, 0, 0, 1]], [[0, 6, 4, 0], [0, 4, 2, 0], [6, 0, 0, 5]], [[0, 6, 0, 9], [1, 0, 8, 0], [1, 0, 0, 9]], [[0, 8, 9, 0], [0, 7, 8, 0], [0, 4, 8, 0]], [[10, 0, 0, 4], [0, 6, 7, 0], [8, 0, 0, 1]], [[0, 9, 6, 0], [7, 0, 0, 5], [3, 0, 0, 2]], [[6, 0, 0, 2], [0, 5, 4, 0], [0, 4, 3, 0]], [[5, 0, 5, 0], [0, 3, 4, 0], [0, 2, 0, 3]], [[5, 0, 0, 9], [0, 5, 3, 0], [0, 3, 3, 0]], [[0, 8, 5, 0], [0, 6, 4, 0], [6, 0, 3, 0]], [[6, 0, 10, 0], [0, 7, 8, 0], [0, 7, 0, 3]], [[9, 0, 0, 4], [5, 0, 9, 0], [3, 0, 7, 0]], [[0, 5, 0, 9], [8, 0, 0, 8], [0, 5, 0, 7]], [[8, 0, 0, 5], [0, 2, 0, 4], [6, 0, 5, 0]], [[0, 3, 0, 9], [0, 1, 3, 0], [3, 0, 1, 0]], [[9, 0, 1, 0], [0, 6, 1, 0], [9, 0, 0, 9]], [[0, 6, 0, 6], [3, 0, 0, 6], [3, 0, 0, 5]], [[0, 7, 0, 6], [7, 0, 0, 5], [0, 2, 2, 0]], [[5, 0, 0, 7], [0, 7, 0, 6], [3, 0, 0, 4]], [[6, 0, 7, 0], [5, 0, 7, 0], [2, 0, 3, 0]], [[8, 0, 7, 0], [6, 0, 0, 5], [2, 0, 4, 0]], [[0, 3, 8, 0], [0, 3, 0, 6], [4, 0, 3, 0]], [[0, 7, 0, 8], [8, 0, 3, 0], [5, 0, 0, 4]], [[5, 0, 0, 10], [4, 0, 0, 9], [0, 3, 0, 8]], [[0, 6, 0, 4], [5, 0, 2, 0], [0, 5, 0, 2]], [[0, 4, 10, 0], [7, 0, 10, 0], [0, 4, 0, 2]], [[9, 0, 6, 0], [0, 8, 0, 4], [0, 8, 0, 3]], [[0, 6, 1, 0], [3, 0, 0, 4], [3, 0, 1, 0]], [[0, 9, 0, 3], [0, 8, 0, 2], [0, 8, 0, 1]], [[0, 9, 0, 5], [4, 0, 0, 4], [0, 8, 0, 3]], [[10, 0, 0, 8], [9, 0, 0, 7], [0, 5, 0, 5]], [[0, 7, 0, 7], [9, 0, 0, 5], [9, 0, 0, 3]], [[0, 7, 4, 0], [0, 5, 2, 0], [0, 3, 2, 0]], [[0, 10, 7, 0], [0, 7, 4, 0], [0, 6, 3, 0]], [[0, 8, 8, 0], [0, 6, 5, 0], [3, 0, 0, 6]], [[0, 6, 5, 0], [0, 5, 0, 2], [1, 0, 3, 0]], [[0, 1, 6, 0], [0, 1, 0, 6], [0, 1, 3, 0]], [[5, 0, 0, 9], [4, 0, 4, 0], [4, 0, 0, 7]], [[5, 0, 0, 1], [0, 5, 3, 0], [3, 0, 3, 0]], [[7, 0, 6, 0], [0, 7, 4, 0], [0, 1, 0, 1]], [[5, 0, 10, 0], [0, 9, 0, 6], [0, 8, 0, 4]], [[0, 5, 10, 0], [7, 0, 9, 0], [0, 1, 9, 0]], [[7, 0, 9, 0], [0, 9, 0, 3], [0, 9, 3, 0]], [[0, 9, 10, 0], [6, 0, 0, 7], [0, 9, 1, 0]], [[0, 9, 0, 10], [2, 0, 5, 0], [2, 0, 0, 5]], [[0, 9, 0, 10], [5, 0, 5, 0], [3, 0, 0, 9]], [[8, 0, 10, 0], [0, 4, 0, 5], [0, 4, 0, 3]], [[9, 0, 0, 3], [4, 0, 10, 0], [2, 0, 10, 0]], [[9, 0, 0, 7], [0, 7, 0, 6], [8, 0, 0, 4]], [[9, 0, 7, 0], [9, 0, 6, 0], [0, 6, 3, 0]], [[5, 0, 7, 0], [4, 0, 0, 5], [0, 1, 4, 0]], [[9, 0, 8, 0], [0, 8, 0, 6], [8, 0, 3, 0]], [[0, 2, 0, 8], [8, 0, 3, 0], [8, 0, 0, 4]], [[0, 3, 0, 10], [5, 0, 0, 9], [3, 0, 0, 8]], [[0, 5, 0, 4], [6, 0, 2, 0], [0, 4, 0, 2]], [[8, 0, 10, 0], [7, 0, 10, 0], [7, 0, 0, 2]], [[0, 8, 6, 0], [8, 0, 0, 4], [0, 8, 0, 3]], [[2, 0, 1, 0], [1, 0, 0, 4], [1, 0, 1, 0]], [[0, 10, 4, 0], [6, 0, 0, 4], [6, 0, 4, 0]], [[8, 0, 5, 0], [0, 1, 5, 0], [7, 0, 4, 0]], [[0, 4, 8, 0], [7, 0, 6, 0], [0, 2, 0, 5]], [[0, 8, 5, 0], [4, 0, 3, 0], [0, 4, 0, 1]], [[0, 2, 7, 0], [0, 1, 0, 2], [0, 1, 0, 1]], [[0, 4, 0, 10], [7, 0, 0, 7], [7, 0, 2, 0]], [[0, 9, 4, 0], [0, 5, 2, 0], [6, 0, 2, 0]], [[0, 8, 0, 8], [9, 0, 0, 7], [9, 0, 0, 5]], [[0, 10, 0, 8], [3, 0, 3, 0], [0, 8, 0, 8]], [[0, 7, 6, 0], [8, 0, 2, 0], [0, 5, 2, 0]], [[0, 6, 0, 7], [2, 0, 0, 6], [2, 0, 0, 4]], [[10, 0, 10, 0], [7, 0, 7, 0], [6, 0, 6, 0]], [[0, 3, 0, 4], [1, 0, 0, 3], [1, 0, 7, 0]], [[0, 9, 0, 5], [5, 0, 7, 0], [3, 0, 0, 2]], [[6, 0, 0, 6], [4, 0, 0, 4], [0, 7, 2, 0]], [[0, 7, 8, 0], [5, 0, 7, 0], [5, 0, 0, 1]], [[7, 0, 0, 6], [7, 0, 6, 0], [0, 1, 4, 0]], [[7, 0, 9, 0], [5, 0, 0, 6], [3, 0, 5, 0]], [[8, 0, 3, 0], [0, 6, 3, 0], [5, 0, 1, 0]], [[0, 4, 0, 3], [0, 2, 0, 2], [0, 1, 4, 0]], [[7, 0, 0, 3], [0, 6, 0, 3], [0, 6, 0, 2]], [[5, 0, 2, 0], [0, 4, 0, 8], [0, 4, 2, 0]], [[0, 10, 0, 5], [5, 0, 0, 4], [5, 0, 0, 3]], [[7, 0, 8, 0], [5, 0, 7, 0], [1, 0, 7, 0]], [[0, 1, 2, 0], [6, 0, 2, 0], [4, 0, 1, 0]], [[0, 5, 8, 0], [0, 4, 0, 3], [0, 4, 0, 2]], [[0, 9, 8, 0], [0, 8, 0, 3], [3, 0, 0, 3]], [[6, 0, 3, 0], [0, 4, 0, 3], [0, 4, 2, 0]], [[7, 0, 8, 0], [0, 4, 4, 0], [5, 0, 2, 0]], [[7, 0, 0, 10], [0, 5, 5, 0], [7, 0, 3, 0]], [[0, 3, 4, 0], [5, 0, 3, 0], [0, 3, 3, 0]], [[0, 1, 0, 9], [9, 0, 0, 5], [0, 1, 7, 0]], [[7, 0, 6, 0], [4, 0, 5, 0], [0, 1, 3, 0]], [[4, 0, 8, 0], [0, 3, 0, 9], [2, 0, 4, 0]], [[6, 0, 0, 10], [6, 0, 6, 0], [6, 0, 0, 8]], [[8, 0, 0, 5], [0, 5, 0, 4], [0, 4, 0, 2]], [[0, 6, 0, 8], [0, 6, 7, 0], [0, 3, 0, 4]], [[3, 0, 0, 9], [3, 0, 0, 6], [0, 5, 0, 6]], [[0, 8, 0, 4], [0, 5, 0, 3], [3, 0, 0, 3]], [[0, 6, 9, 0], [8, 0, 6, 0], [8, 0, 0, 2]], [[0, 0, 0, 0]]]
